networks/zoo_50_120/zoo_50_120-lower.txt
Number of groups: 21
Flow 2: {1 4 0} {4 3 1} {3 28 2} 
Flow 18: {3 4 0} {4 29 1} 
Flow 22: {3 2 0} {2 15 1} {15 40 2} 
Flow 32: {4 2 0} {2 7 1} {7 25 2} {25 16 3} {16 41 4} 
Flow 38: {5 25 0} {25 6 1} {6 31 2} 
Flow 46: {6 7 0} {7 32 1} 
Flow 48: {8 23 0} {23 48 1} 
Flow 54: {25 5 0} {5 30 1} 
Flow 57: {6 9 0} {9 34 1} 
Flow 58: {2 12 0} {12 37 1} 
Flow 63: {25 18 0} {18 43 1} 
Flow 64: {7 6 0} {6 21 1} {21 46 2} 
Flow 68: {15 2 0} {2 27 1} 
Flow 76: {18 25 0} {25 7 1} {7 8 2} {8 33 3} 
Flow 81: {21 6 0} {6 25 1} {25 24 2} {24 49 3} 
Flow 85: {23 8 0} {8 7 1} {7 2 2} {2 4 3} 
Flow 101: {24 25 0} {25 50 1} 
Flow 110: {2 11 0} {11 36 1} 
Flow 112: {17 13 0} {13 38 1} 
Flow 115: {2 3 0} {3 17 1} {17 42 2} 
Flow 117: {25 20 0} {20 45 1} 
Time taken running everything: 0 seconds
