networks/zoo_50_120/zoo_50_120-lower.sol
<?xml version = "1.0" encoding="UTF-8" standalone="yes"?>
<CPLEXSolution version="1.2">
 <header
   problemName="networks/zoo_50_120/zoo_50_120-lower.lp"
   solutionName="incumbent"
   solutionIndex="-1"
   objectiveValue="20"
   solutionTypeValue="3"
   solutionTypeString="primal"
   solutionStatusValue="101"
   solutionStatusString="integer optimal solution"
   solutionMethodString="mip"
   primalFeasible="1"
   dualFeasible="1"
   MIPNodes="0"
   MIPIterations="0"
   writeLevel="3"/>
 <quality
   epInt="1.0000000000000001e-05"
   epRHS="9.9999999999999995e-07"
   maxIntInfeas="0"
   maxPrimalInfeas="0"
   maxX="1"
   maxSlack="1"/>
 <variables>
  <variable name="Y(1,2)" index="1" value="1"/>
  <variable name="Y(2,3)" index="43" value="1"/>
  <variable name="Y(3,6)" index="87" value="1"/>
  <variable name="Y(4,7)" index="129" value="1"/>
  <variable name="Y(5,8)" index="171" value="1"/>
  <variable name="Y(6,23)" index="223" value="1"/>
  <variable name="Y(7,24)" index="265" value="1"/>
  <variable name="Y(8,25)" index="307" value="1"/>
  <variable name="Y(10,4)" index="372" value="1"/>
  <variable name="Y(22,15)" index="873" value="1"/>
  <variable name="Y(32,16)" index="1284" value="1"/>
  <variable name="Y(54,5)" index="2177" value="1"/>
  <variable name="Y(57,9)" index="2304" value="1"/>
  <variable name="Y(58,12)" index="2347" value="1"/>
  <variable name="Y(59,13)" index="2389" value="1"/>
  <variable name="Y(62,17)" index="2515" value="1"/>
  <variable name="Y(63,18)" index="2557" value="1"/>
  <variable name="Y(64,21)" index="2600" value="1"/>
  <variable name="Y(110,11)" index="4478" value="1"/>
  <variable name="Y(117,20)" index="4772" value="1"/>
  <variable name="X(1,4,1)" index="4920" value="1"/>
  <variable name="X(2,3,9)" index="5048" value="1"/>
  <variable name="X(2,4,10)" index="5169" value="1"/>
  <variable name="X(2,7,3)" index="5282" value="1"/>
  <variable name="X(2,11,110)" index="5509" value="1"/>
  <variable name="X(2,12,58)" index="5577" value="1"/>
  <variable name="X(2,15,22)" index="5661" value="1"/>
  <variable name="X(2,27,1)" index="5760" value="1"/>
  <variable name="X(3,2,17)" index="5896" value="1"/>
  <variable name="X(3,4,18)" index="6017" value="1"/>
  <variable name="X(3,17,59)" index="6178" value="1"/>
  <variable name="X(3,28,2)" index="6241" value="1"/>
  <variable name="X(4,2,1)" index="6360" value="1"/>
  <variable name="X(4,3,2)" index="6481" value="1"/>
  <variable name="X(4,29,10)" index="6609" value="1"/>
  <variable name="X(5,25,36)" index="6755" value="1"/>
  <variable name="X(5,30,54)" index="6893" value="1"/>
  <variable name="X(6,7,44)" index="7003" value="1"/>
  <variable name="X(6,9,57)" index="7136" value="1"/>
  <variable name="X(6,21,64)" index="7263" value="1"/>
  <variable name="X(6,25,49)" index="7368" value="1"/>
  <variable name="X(6,31,3)" index="7442" value="1"/>
  <variable name="X(7,2,36)" index="7595" value="1"/>
  <variable name="X(7,6,3)" index="7682" value="1"/>
  <variable name="X(7,8,5)" index="7804" value="1"/>
  <variable name="X(7,25,7)" index="7926" value="1"/>
  <variable name="X(7,32,4)" index="8043" value="1"/>
  <variable name="X(8,7,51)" index="8210" value="1"/>
  <variable name="X(8,23,6)" index="8285" value="1"/>
  <variable name="X(8,33,5)" index="8404" value="1"/>
  <variable name="X(9,34,57)" index="8576" value="1"/>
  <variable name="X(11,36,110)" index="8749" value="1"/>
  <variable name="X(12,37,58)" index="8817" value="1"/>
  <variable name="X(13,38,59)" index="8938" value="1"/>
  <variable name="X(15,2,68)" index="9067" value="1"/>
  <variable name="X(15,40,22)" index="9141" value="1"/>
  <variable name="X(16,41,32)" index="9271" value="1"/>
  <variable name="X(17,13,59)" index="9418" value="1"/>
  <variable name="X(17,42,62)" index="9541" value="1"/>
  <variable name="X(18,25,76)" index="9675" value="1"/>
  <variable name="X(18,43,63)" index="9782" value="1"/>
  <variable name="X(20,45,117)" index="9956" value="1"/>
  <variable name="X(21,6,77)" index="10036" value="1"/>
  <variable name="X(21,46,64)" index="10143" value="1"/>
  <variable name="X(23,8,83)" index="10282" value="1"/>
  <variable name="X(23,48,6)" index="10325" value="1"/>
  <variable name="X(24,25,93)" index="10532" value="1"/>
  <variable name="X(24,49,7)" index="10566" value="1"/>
  <variable name="X(25,5,54)" index="10733" value="1"/>
  <variable name="X(25,6,38)" index="10837" value="1"/>
  <variable name="X(25,7,36)" index="10955" value="1"/>
  <variable name="X(25,16,32)" index="11071" value="1"/>
  <variable name="X(25,18,63)" index="11222" value="1"/>
  <variable name="X(25,20,117)" index="11396" value="1"/>
  <variable name="X(25,24,7)" index="11406" value="1"/>
  <variable name="X(25,50,8)" index="11527" value="1"/>
 </variables>
</CPLEXSolution>
